; Copyright (c) 2026 The RIINA Authors. All rights reserved.
; Copyright (c) 2026 The RIINA Authors.
; Auto-generated from 02_FORMAL/coq/domains/ContainerSecurity.v (106 assertions)
; Generated by scripts/generate-full-stack.py
; Module: ContainerSecurity

(set-logic ALL)
(set-option :produce-models true)

; SyscallCategory (matches Coq: Inductive SyscallCategory)
(declare-datatypes ((SyscallCategory 0)) (((SC_Process) (SC_FileSystem) (SC_Network) (SC_Memory) (SC_Privileged) (SC_Debug) (SC_Module) (SC_Namespace))))

; NamespaceIsolation (matches Coq: Record NamespaceIsolation)
(declare-datatypes ((NamespaceIsolation 0))
  (((mk-namespace_isolation (ns_pid_isolated Bool) (ns_net_isolated Bool) (ns_mount_isolated Bool) (ns_user_isolated Bool) (ns_uts_isolated Bool) (ns_ipc_isolated Bool) (ns_cgroup_isolated Bool) (ns_time_isolated Bool)))))

; CgroupLimits (matches Coq: Record CgroupLimits)
(declare-datatypes ((CgroupLimits 0))
  (((mk-cgroup_limits (cg_cpu_limited Bool) (cg_memory_limited Bool) (cg_swap_disabled Bool) (cg_pids_limited Bool) (cg_io_limited Bool)))))

; SeccompConfig (matches Coq: Record SeccompConfig)
(declare-datatypes ((SeccompConfig 0))
  (((mk-seccomp_config (sc_syscall_filter Bool) (sc_default_deny Bool) (sc_audit_logging Bool) (sc_allow_process Bool) (sc_allow_fs Bool) (sc_allow_network Bool) (sc_allow_memory Bool) (sc_block_privileged Bool) (sc_block_debug Bool) (sc_block_module Bool) (sc_block_namespace Bool)))))

; Capabilities (matches Coq: Record Capabilities)
(declare-datatypes ((Capabilities 0))
  (((mk-capabilities (cap_chown Bool) (cap_dac_override Bool) (cap_fowner Bool) (cap_kill Bool) (cap_setuid Bool) (cap_setgid Bool) (cap_net_bind Bool) (cap_net_raw Bool) (cap_sys_admin Bool) (cap_sys_ptrace Bool) (cap_sys_module Bool) (cap_sys_rawio Bool) (cap_mknod Bool) (cap_audit_write Bool)))))

; ImageIntegrity (matches Coq: Record ImageIntegrity)
(declare-datatypes ((ImageIntegrity 0))
  (((mk-image_integrity (img_signed Bool) (img_signature_valid Bool) (img_hash_verified Bool) (img_trusted_registry Bool) (img_sbom_present Bool) (img_vuln_scanned Bool) (img_no_critical_vulns Bool) (img_base_verified Bool)))))

; EscapePrevention (matches Coq: Record EscapePrevention)
(declare-datatypes ((EscapePrevention 0))
  (((mk-escape_prevention (esc_no_privileged Bool) (esc_no_host_pid Bool) (esc_no_host_net Bool) (esc_no_host_ipc Bool) (esc_readonly_rootfs Bool) (esc_no_new_privs Bool) (esc_seccomp_enabled Bool) (esc_apparmor_enabled Bool) (esc_selinux_enabled Bool) (esc_drop_all_caps Bool)))))

; ContainerConfig (matches Coq: Record ContainerConfig)
(declare-datatypes ((ContainerConfig 0))
  (((mk-container_config (cont_ns NamespaceIsolation) (cont_cgroup CgroupLimits) (cont_seccomp SeccompConfig) (cont_caps Capabilities) (cont_image ImageIntegrity) (cont_escape EscapePrevention) (cont_rootless Bool)))))

; ns_fully_isolated (matches Coq: Definition ns_fully_isolated)
(define-fun ns_fully_isolated ((n NamespaceIsolation)) Bool
  (and (ns_pid_isolated n) (ns_net_isolated n) (ns_mount_isolated n) (ns_user_isolated n) (ns_uts_isolated n) (ns_ipc_isolated n) (ns_cgroup_isolated n) (ns_time_isolated n)))

; ns_minimally_isolated (matches Coq: Definition ns_minimally_isolated)
(define-fun ns_minimally_isolated ((n NamespaceIsolation)) Bool
  (and (ns_pid_isolated n) (ns_net_isolated n) (ns_mount_isolated n) (ns_user_isolated n)))

; ns_network_safe (matches Coq: Definition ns_network_safe)
(define-fun ns_network_safe ((n NamespaceIsolation)) Bool
  (and (ns_net_isolated n) (ns_uts_isolated n)))

; ns_process_safe (matches Coq: Definition ns_process_safe)
(define-fun ns_process_safe ((n NamespaceIsolation)) Bool
  (and (ns_pid_isolated n) (ns_ipc_isolated n) (ns_cgroup_isolated n)))

; cgroup_cpu_safe (matches Coq: Definition cgroup_cpu_safe)
(define-fun cgroup_cpu_safe ((c CgroupLimits)) Bool
  (cg_cpu_limited c))

; cgroup_memory_safe (matches Coq: Definition cgroup_memory_safe)
(define-fun cgroup_memory_safe ((c CgroupLimits)) Bool
  (and (cg_memory_limited c) (cg_swap_disabled c)))

; cgroup_pids_safe (matches Coq: Definition cgroup_pids_safe)
(define-fun cgroup_pids_safe ((c CgroupLimits)) Bool
  (cg_pids_limited c))

; cgroup_io_safe (matches Coq: Definition cgroup_io_safe)
(define-fun cgroup_io_safe ((c CgroupLimits)) Bool
  (cg_io_limited c))

; cgroup_fully_limited (matches Coq: Definition cgroup_fully_limited)
(define-fun cgroup_fully_limited ((c CgroupLimits)) Bool
  (and (cg_cpu_limited c) (cg_memory_limited c) (cg_swap_disabled c) (cg_pids_limited c) (cg_io_limited c)))

; seccomp_enforced (matches Coq: Definition seccomp_enforced)
(define-fun seccomp_enforced ((s SeccompConfig)) Bool
  (and (sc_syscall_filter s) (sc_default_deny s) (sc_audit_logging s)))

; seccomp_minimal_safe (matches Coq: Definition seccomp_minimal_safe)
(define-fun seccomp_minimal_safe ((s SeccompConfig)) Bool
  (and (sc_syscall_filter s) (sc_block_privileged s) (sc_block_debug s)))

; seccomp_escape_protected (matches Coq: Definition seccomp_escape_protected)
(define-fun seccomp_escape_protected ((s SeccompConfig)) Bool
  (and (sc_block_privileged s) (sc_block_module s) (sc_block_namespace s)))

; seccomp_fully_hardened (matches Coq: Definition seccomp_fully_hardened)
(define-fun seccomp_fully_hardened ((s SeccompConfig)) Bool
  (and (seccomp_enforced s) (seccomp_escape_protected s) (sc_block_debug s)))

; caps_dangerous_dropped (matches Coq: Definition caps_dangerous_dropped)
(define-fun caps_dangerous_dropped ((c Capabilities)) Bool
  true)

; caps_minimal (matches Coq: Definition caps_minimal)
(define-fun caps_minimal ((c Capabilities)) Bool
  true)

; caps_rootless_safe (matches Coq: Definition caps_rootless_safe)
(define-fun caps_rootless_safe ((c Capabilities)) Bool
  true)

; caps_network_minimal (matches Coq: Definition caps_network_minimal)
(define-fun caps_network_minimal ((c Capabilities)) Bool
  true)

; image_authenticity_verified (matches Coq: Definition image_authenticity_verified)
(define-fun image_authenticity_verified ((i ImageIntegrity)) Bool
  (and (img_signed i) (img_signature_valid i) (img_hash_verified i)))

; image_provenance_verified (matches Coq: Definition image_provenance_verified)
(define-fun image_provenance_verified ((i ImageIntegrity)) Bool
  (and (img_trusted_registry i) (img_sbom_present i) (img_base_verified i)))

; image_security_verified (matches Coq: Definition image_security_verified)
(define-fun image_security_verified ((i ImageIntegrity)) Bool
  (and (img_vuln_scanned i) (img_no_critical_vulns i)))

; image_fully_verified (matches Coq: Definition image_fully_verified)
(define-fun image_fully_verified ((i ImageIntegrity)) Bool
  (and (image_authenticity_verified i) (image_provenance_verified i) (image_security_verified i)))

; escape_basic_protected (matches Coq: Definition escape_basic_protected)
(define-fun escape_basic_protected ((e EscapePrevention)) Bool
  (and (esc_no_privileged e) (esc_no_host_pid e) (esc_no_host_net e) (esc_no_host_ipc e)))

; escape_filesystem_protected (matches Coq: Definition escape_filesystem_protected)
(define-fun escape_filesystem_protected ((e EscapePrevention)) Bool
  (and (esc_readonly_rootfs e) (esc_no_new_privs e)))

; escape_mac_protected (matches Coq: Definition escape_mac_protected)
(define-fun escape_mac_protected ((e EscapePrevention)) Bool
  (or (esc_apparmor_enabled e) (esc_selinux_enabled e)))

; escape_fully_protected (matches Coq: Definition escape_fully_protected)
(define-fun escape_fully_protected ((e EscapePrevention)) Bool
  (and (escape_basic_protected e) (escape_filesystem_protected e) (esc_seccomp_enabled e) (esc_drop_all_caps e)))

; container_isolated (matches Coq: Definition container_isolated)
(define-fun container_isolated ((c ContainerConfig)) Bool
  true)

; container_resource_safe (matches Coq: Definition container_resource_safe)
(define-fun container_resource_safe ((c ContainerConfig)) Bool
  true)

; container_syscall_safe (matches Coq: Definition container_syscall_safe)
(define-fun container_syscall_safe ((c ContainerConfig)) Bool
  true)

; container_capability_safe (matches Coq: Definition container_capability_safe)
(define-fun container_capability_safe ((c ContainerConfig)) Bool
  true)

; container_image_safe (matches Coq: Definition container_image_safe)
(define-fun container_image_safe ((c ContainerConfig)) Bool
  true)

; container_escape_safe (matches Coq: Definition container_escape_safe)
(define-fun container_escape_safe ((c ContainerConfig)) Bool
  true)

; container_fully_secure (matches Coq: Definition container_fully_secure)
(define-fun container_fully_secure ((c ContainerConfig)) Bool
  (and (container_isolated c) (container_resource_safe c) (container_syscall_safe c) (container_capability_safe c) (container_image_safe c) (container_escape_safe c) (cont_rootless c)))

; riina_ns (matches Coq: Definition riina_ns)
(define-fun riina_ns () NamespaceIsolation
  (mk-namespace_isolation true true true true true true true true))

; riina_cgroup (matches Coq: Definition riina_cgroup)
(define-fun riina_cgroup () CgroupLimits
  (mk-cgroup_limits true true true true true))

; riina_seccomp (matches Coq: Definition riina_seccomp)
(define-fun riina_seccomp () SeccompConfig
  (mk-seccomp_config true true true true true true true true true true true))

; riina_caps (matches Coq: Definition riina_caps)
(define-fun riina_caps () Capabilities
  (mk-capabilities false false false false false false true false false false false false false false))

; riina_image (matches Coq: Definition riina_image)
(define-fun riina_image () ImageIntegrity
  (mk-image_integrity true true true true true true true true))

; riina_escape (matches Coq: Definition riina_escape)
(define-fun riina_escape () EscapePrevention
  (mk-escape_prevention true true true true true true true true true true))

; riina_container (matches Coq: Definition riina_container)
(define-fun riina_container () ContainerConfig
  (mk-container_config (riina_ns) (riina_cgroup) (riina_seccomp) (riina_caps) (riina_image) (riina_escape) true))

; andb_true_intro (matches Coq: Lemma andb_true_intro)
(assert (= true true)) ; andb_true_intro [untranslatable]

; andb_true_elim1 (matches Coq: Lemma andb_true_elim1)
(assert (= true true)) ; andb_true_elim1 [untranslatable]

; andb_true_elim2 (matches Coq: Lemma andb_true_elim2)
(assert (= true true)) ; andb_true_elim2 [untranslatable]

; andb7_true (matches Coq: Lemma andb7_true)
(assert (= true true)) ; andb7_true [untranslatable]

; NS_001_full_isolation (matches Coq: Theorem NS_001_full_isolation)
(assert (= (ns_fully_isolated riina_ns) true)) ; NS_001_full_isolation

; NS_002_minimal_isolation (matches Coq: Theorem NS_002_minimal_isolation)
(assert (= (ns_minimally_isolated riina_ns) true)) ; NS_002_minimal_isolation

; NS_003_pid_isolated (matches Coq: Theorem NS_003_pid_isolated)
(assert (= (ns_pid_isolated riina_ns) true)) ; NS_003_pid_isolated

; NS_004_net_isolated (matches Coq: Theorem NS_004_net_isolated)
(assert (= (ns_net_isolated riina_ns) true)) ; NS_004_net_isolated

; NS_005_mount_isolated (matches Coq: Theorem NS_005_mount_isolated)
(assert (= (ns_mount_isolated riina_ns) true)) ; NS_005_mount_isolated

; NS_006_user_isolated (matches Coq: Theorem NS_006_user_isolated)
(assert (= (ns_user_isolated riina_ns) true)) ; NS_006_user_isolated

; NS_007_uts_isolated (matches Coq: Theorem NS_007_uts_isolated)
(assert (= (ns_uts_isolated riina_ns) true)) ; NS_007_uts_isolated

; NS_008_ipc_isolated (matches Coq: Theorem NS_008_ipc_isolated)
(assert (= (ns_ipc_isolated riina_ns) true)) ; NS_008_ipc_isolated

; NS_009_cgroup_isolated (matches Coq: Theorem NS_009_cgroup_isolated)
(assert (= (ns_cgroup_isolated riina_ns) true)) ; NS_009_cgroup_isolated

; NS_010_time_isolated (matches Coq: Theorem NS_010_time_isolated)
(assert (= (ns_time_isolated riina_ns) true)) ; NS_010_time_isolated

; NS_011_network_safe (matches Coq: Theorem NS_011_network_safe)
(assert (= (ns_network_safe riina_ns) true)) ; NS_011_network_safe

; NS_012_process_safe (matches Coq: Theorem NS_012_process_safe)
(assert (= (ns_process_safe riina_ns) true)) ; NS_012_process_safe

; NS_013_full_implies_pid (matches Coq: Theorem NS_013_full_implies_pid)
(assert (= true true)) ; NS_013_full_implies_pid [untranslatable]

; NS_014_full_implies_net (matches Coq: Theorem NS_014_full_implies_net)
(assert (= true true)) ; NS_014_full_implies_net [untranslatable]

; NS_015_full_implies_user (matches Coq: Theorem NS_015_full_implies_user)
(assert (= true true)) ; NS_015_full_implies_user [untranslatable]

; CG_001_cpu_safe (matches Coq: Theorem CG_001_cpu_safe)
(assert (= (cgroup_cpu_safe riina_cgroup) true)) ; CG_001_cpu_safe

; CG_002_memory_safe (matches Coq: Theorem CG_002_memory_safe)
(assert (= (cgroup_memory_safe riina_cgroup) true)) ; CG_002_memory_safe

; CG_003_pids_safe (matches Coq: Theorem CG_003_pids_safe)
(assert (= (cgroup_pids_safe riina_cgroup) true)) ; CG_003_pids_safe

; CG_004_io_safe (matches Coq: Theorem CG_004_io_safe)
(assert (= (cgroup_io_safe riina_cgroup) true)) ; CG_004_io_safe

; CG_005_fully_limited (matches Coq: Theorem CG_005_fully_limited)
(assert (= (cgroup_fully_limited riina_cgroup) true)) ; CG_005_fully_limited

; CG_006_full_implies_cpu (matches Coq: Theorem CG_006_full_implies_cpu)
(assert (= true true)) ; CG_006_full_implies_cpu [untranslatable]

; CG_007_full_implies_memory (matches Coq: Theorem CG_007_full_implies_memory)
(assert (= true true)) ; CG_007_full_implies_memory [untranslatable]

; CG_008_full_implies_pids (matches Coq: Theorem CG_008_full_implies_pids)
(assert (= true true)) ; CG_008_full_implies_pids [untranslatable]

; CG_009_full_implies_io (matches Coq: Theorem CG_009_full_implies_io)
(assert (= true true)) ; CG_009_full_implies_io [untranslatable]

; CG_010_swap_disabled (matches Coq: Theorem CG_010_swap_disabled)
(assert (= (cg_swap_disabled riina_cgroup) true)) ; CG_010_swap_disabled

; SC_001_enforced (matches Coq: Theorem SC_001_enforced)
(assert (= (seccomp_enforced riina_seccomp) true)) ; SC_001_enforced

; SC_002_minimal_safe (matches Coq: Theorem SC_002_minimal_safe)
(assert (= (seccomp_minimal_safe riina_seccomp) true)) ; SC_002_minimal_safe

; SC_003_escape_protected (matches Coq: Theorem SC_003_escape_protected)
(assert (= (seccomp_escape_protected riina_seccomp) true)) ; SC_003_escape_protected

; SC_004_fully_hardened (matches Coq: Theorem SC_004_fully_hardened)
(assert (= (seccomp_fully_hardened riina_seccomp) true)) ; SC_004_fully_hardened

; SC_005_filter_enabled (matches Coq: Theorem SC_005_filter_enabled)
(assert (= (sc_syscall_filter riina_seccomp) true)) ; SC_005_filter_enabled

; SC_006_default_deny (matches Coq: Theorem SC_006_default_deny)
(assert (= (sc_default_deny riina_seccomp) true)) ; SC_006_default_deny

; SC_007_audit_logging (matches Coq: Theorem SC_007_audit_logging)
(assert (= (sc_audit_logging riina_seccomp) true)) ; SC_007_audit_logging

; SC_008_block_privileged (matches Coq: Theorem SC_008_block_privileged)
(assert (= (sc_block_privileged riina_seccomp) true)) ; SC_008_block_privileged

; SC_009_block_debug (matches Coq: Theorem SC_009_block_debug)
(assert (= (sc_block_debug riina_seccomp) true)) ; SC_009_block_debug

; SC_010_block_module (matches Coq: Theorem SC_010_block_module)
(assert (= (sc_block_module riina_seccomp) true)) ; SC_010_block_module

; SC_011_block_namespace (matches Coq: Theorem SC_011_block_namespace)
(assert (= (sc_block_namespace riina_seccomp) true)) ; SC_011_block_namespace

; SC_012_hardened_implies_filter (matches Coq: Theorem SC_012_hardened_implies_filter)
(assert (= true true)) ; SC_012_hardened_implies_filter [untranslatable]

; SC_013_hardened_implies_block_priv (matches Coq: Theorem SC_013_hardened_implies_block_priv)
(assert (= true true)) ; SC_013_hardened_implies_block_priv [untranslatable]

; CAP_001_dangerous_dropped (matches Coq: Theorem CAP_001_dangerous_dropped)
(assert (= (caps_dangerous_dropped riina_caps) true)) ; CAP_001_dangerous_dropped

; CAP_002_minimal (matches Coq: Theorem CAP_002_minimal)
(assert (= (caps_minimal riina_caps) true)) ; CAP_002_minimal

; CAP_003_rootless_safe (matches Coq: Theorem CAP_003_rootless_safe)
(assert (= (caps_rootless_safe riina_caps) true)) ; CAP_003_rootless_safe

; CAP_004_network_minimal (matches Coq: Theorem CAP_004_network_minimal)
(assert (= (caps_network_minimal riina_caps) true)) ; CAP_004_network_minimal

; CAP_005_no_sys_admin (matches Coq: Theorem CAP_005_no_sys_admin)
(assert (= (cap_sys_admin riina_caps) false)) ; CAP_005_no_sys_admin

; CAP_006_no_sys_ptrace (matches Coq: Theorem CAP_006_no_sys_ptrace)
(assert (= (cap_sys_ptrace riina_caps) false)) ; CAP_006_no_sys_ptrace

; CAP_007_no_sys_module (matches Coq: Theorem CAP_007_no_sys_module)
(assert (= (cap_sys_module riina_caps) false)) ; CAP_007_no_sys_module

; CAP_008_no_sys_rawio (matches Coq: Theorem CAP_008_no_sys_rawio)
(assert (= (cap_sys_rawio riina_caps) false)) ; CAP_008_no_sys_rawio

; CAP_009_no_net_raw (matches Coq: Theorem CAP_009_no_net_raw)
(assert (= (cap_net_raw riina_caps) false)) ; CAP_009_no_net_raw

; CAP_010_no_setuid (matches Coq: Theorem CAP_010_no_setuid)
(assert (= (cap_setuid riina_caps) false)) ; CAP_010_no_setuid

; CAP_011_no_setgid (matches Coq: Theorem CAP_011_no_setgid)
(assert (= (cap_setgid riina_caps) false)) ; CAP_011_no_setgid

; CAP_012_no_chown (matches Coq: Theorem CAP_012_no_chown)
(assert (= (cap_chown riina_caps) false)) ; CAP_012_no_chown

; CAP_013_net_bind_allowed (matches Coq: Theorem CAP_013_net_bind_allowed)
(assert (= (cap_net_bind riina_caps) true)) ; CAP_013_net_bind_allowed

; IMG_001_authenticity_verified (matches Coq: Theorem IMG_001_authenticity_verified)
(assert (= (image_authenticity_verified riina_image) true)) ; IMG_001_authenticity_verified

; IMG_002_provenance_verified (matches Coq: Theorem IMG_002_provenance_verified)
(assert (= (image_provenance_verified riina_image) true)) ; IMG_002_provenance_verified

; IMG_003_security_verified (matches Coq: Theorem IMG_003_security_verified)
(assert (= (image_security_verified riina_image) true)) ; IMG_003_security_verified

; IMG_004_fully_verified (matches Coq: Theorem IMG_004_fully_verified)
(assert (= (image_fully_verified riina_image) true)) ; IMG_004_fully_verified

; IMG_005_signed (matches Coq: Theorem IMG_005_signed)
(assert (= (img_signed riina_image) true)) ; IMG_005_signed

; IMG_006_signature_valid (matches Coq: Theorem IMG_006_signature_valid)
(assert (= (img_signature_valid riina_image) true)) ; IMG_006_signature_valid

; IMG_007_hash_verified (matches Coq: Theorem IMG_007_hash_verified)
(assert (= (img_hash_verified riina_image) true)) ; IMG_007_hash_verified

; IMG_008_trusted_registry (matches Coq: Theorem IMG_008_trusted_registry)
(assert (= (img_trusted_registry riina_image) true)) ; IMG_008_trusted_registry

; IMG_009_sbom_present (matches Coq: Theorem IMG_009_sbom_present)
(assert (= (img_sbom_present riina_image) true)) ; IMG_009_sbom_present

; IMG_010_vuln_scanned (matches Coq: Theorem IMG_010_vuln_scanned)
(assert (= (img_vuln_scanned riina_image) true)) ; IMG_010_vuln_scanned

; IMG_011_no_critical_vulns (matches Coq: Theorem IMG_011_no_critical_vulns)
(assert (= (img_no_critical_vulns riina_image) true)) ; IMG_011_no_critical_vulns

; IMG_012_base_verified (matches Coq: Theorem IMG_012_base_verified)
(assert (= (img_base_verified riina_image) true)) ; IMG_012_base_verified

; IMG_013_full_implies_signed (matches Coq: Theorem IMG_013_full_implies_signed)
(assert (= true true)) ; IMG_013_full_implies_signed [untranslatable]

; IMG_014_full_implies_no_vulns (matches Coq: Theorem IMG_014_full_implies_no_vulns)
(assert (= true true)) ; IMG_014_full_implies_no_vulns [untranslatable]

; ESC_001_basic_protected (matches Coq: Theorem ESC_001_basic_protected)
(assert (= (escape_basic_protected riina_escape) true)) ; ESC_001_basic_protected

; ESC_002_filesystem_protected (matches Coq: Theorem ESC_002_filesystem_protected)
(assert (= (escape_filesystem_protected riina_escape) true)) ; ESC_002_filesystem_protected

; ESC_003_mac_protected (matches Coq: Theorem ESC_003_mac_protected)
(assert (= (escape_mac_protected riina_escape) true)) ; ESC_003_mac_protected

; ESC_004_fully_protected (matches Coq: Theorem ESC_004_fully_protected)
(assert (= (escape_fully_protected riina_escape) true)) ; ESC_004_fully_protected

; ESC_005_no_privileged (matches Coq: Theorem ESC_005_no_privileged)
(assert (= (esc_no_privileged riina_escape) true)) ; ESC_005_no_privileged

; ESC_006_no_host_pid (matches Coq: Theorem ESC_006_no_host_pid)
(assert (= (esc_no_host_pid riina_escape) true)) ; ESC_006_no_host_pid

; ESC_007_no_host_net (matches Coq: Theorem ESC_007_no_host_net)
(assert (= (esc_no_host_net riina_escape) true)) ; ESC_007_no_host_net

; ESC_008_no_host_ipc (matches Coq: Theorem ESC_008_no_host_ipc)
(assert (= (esc_no_host_ipc riina_escape) true)) ; ESC_008_no_host_ipc

; ESC_009_readonly_rootfs (matches Coq: Theorem ESC_009_readonly_rootfs)
(assert (= (esc_readonly_rootfs riina_escape) true)) ; ESC_009_readonly_rootfs

; ESC_010_no_new_privs (matches Coq: Theorem ESC_010_no_new_privs)
(assert (= (esc_no_new_privs riina_escape) true)) ; ESC_010_no_new_privs

; ESC_011_seccomp_enabled (matches Coq: Theorem ESC_011_seccomp_enabled)
(assert (= (esc_seccomp_enabled riina_escape) true)) ; ESC_011_seccomp_enabled

; ESC_012_drop_all_caps (matches Coq: Theorem ESC_012_drop_all_caps)
(assert (= (esc_drop_all_caps riina_escape) true)) ; ESC_012_drop_all_caps

; ESC_013_full_implies_no_priv (matches Coq: Theorem ESC_013_full_implies_no_priv)
(assert (= true true)) ; ESC_013_full_implies_no_priv [untranslatable]

; ESC_014_full_implies_seccomp (matches Coq: Theorem ESC_014_full_implies_seccomp)
(assert (= true true)) ; ESC_014_full_implies_seccomp [untranslatable]

; CONT_001_isolated (matches Coq: Theorem CONT_001_isolated)
(assert (= (container_isolated riina_container) true)) ; CONT_001_isolated

; CONT_002_resource_safe (matches Coq: Theorem CONT_002_resource_safe)
(assert (= (container_resource_safe riina_container) true)) ; CONT_002_resource_safe

; CONT_003_syscall_safe (matches Coq: Theorem CONT_003_syscall_safe)
(assert (= (container_syscall_safe riina_container) true)) ; CONT_003_syscall_safe

; CONT_004_capability_safe (matches Coq: Theorem CONT_004_capability_safe)
(assert (= (container_capability_safe riina_container) true)) ; CONT_004_capability_safe

; CONT_005_image_safe (matches Coq: Theorem CONT_005_image_safe)
(assert (= (container_image_safe riina_container) true)) ; CONT_005_image_safe

; CONT_006_escape_safe (matches Coq: Theorem CONT_006_escape_safe)
(assert (= (container_escape_safe riina_container) true)) ; CONT_006_escape_safe

; CONT_007_fully_secure (matches Coq: Theorem CONT_007_fully_secure)
(assert (= (container_fully_secure riina_container) true)) ; CONT_007_fully_secure

; CONT_008_rootless (matches Coq: Theorem CONT_008_rootless)
(assert (= (cont_rootless riina_container) true)) ; CONT_008_rootless

; CONT_009_secure_implies_isolated (matches Coq: Theorem CONT_009_secure_implies_isolated)
(assert (= true true)) ; CONT_009_secure_implies_isolated [untranslatable]

; CONT_010_secure_implies_resource (matches Coq: Theorem CONT_010_secure_implies_resource)
(assert (= true true)) ; CONT_010_secure_implies_resource [untranslatable]

; CONT_011_secure_implies_syscall (matches Coq: Theorem CONT_011_secure_implies_syscall)
(assert (= true true)) ; CONT_011_secure_implies_syscall [untranslatable]

; CONT_012_secure_implies_capability (matches Coq: Theorem CONT_012_secure_implies_capability)
(assert (= true true)) ; CONT_012_secure_implies_capability [untranslatable]

; CONT_013_secure_implies_image (matches Coq: Theorem CONT_013_secure_implies_image)
(assert (= true true)) ; CONT_013_secure_implies_image [untranslatable]

; CONT_014_secure_implies_escape (matches Coq: Theorem CONT_014_secure_implies_escape)
(assert (= true true)) ; CONT_014_secure_implies_escape [untranslatable]

; CONT_015_secure_implies_rootless (matches Coq: Theorem CONT_015_secure_implies_rootless)
(assert (= true true)) ; CONT_015_secure_implies_rootless [untranslatable]

; CROSS_001_all_protections (matches Coq: Theorem CROSS_001_all_protections)
(assert (= true true)) ; CROSS_001_all_protections [untranslatable]

; RIINA_001_defense_in_depth (matches Coq: Theorem RIINA_001_defense_in_depth)
(assert (and (= (container_fully_secure riina_container) true) (= (ns_fully_isolated riina_ns) true) (= (cgroup_fully_limited riina_cgroup) true) (= (seccomp_fully_hardened riina_seccomp) true) (= (caps_rootless_safe riina_caps) true) (= (image_fully_verified riina_image) true) (= (escape_fully_protected riina_escape) true))) ; RIINA_001_defense_in_depth

; RIINA_002_no_escape_vectors (matches Coq: Theorem RIINA_002_no_escape_vectors)
(assert (and (= (esc_no_privileged riina_escape) true) (= (esc_no_host_pid riina_escape) true) (= (esc_no_host_net riina_escape) true) (= (esc_readonly_rootfs riina_escape) true) (= (esc_no_new_privs riina_escape) true) (= (sc_block_privileged riina_seccomp) true) (= (sc_block_module riina_seccomp) true) (= (sc_block_namespace riina_seccomp) true) (= (cap_sys_admin riina_caps) false) (= (cap_sys_ptrace riina_caps) false) (= (cap_sys_module riina_caps) false))) ; RIINA_002_no_escape_vectors

; RIINA_003_complete_isolation (matches Coq: Theorem RIINA_003_complete_isolation)
(assert (and (= (ns_pid_isolated riina_ns) true) (= (ns_net_isolated riina_ns) true) (= (ns_mount_isolated riina_ns) true) (= (ns_user_isolated riina_ns) true) (= (ns_uts_isolated riina_ns) true) (= (ns_ipc_isolated riina_ns) true) (= (ns_cgroup_isolated riina_ns) true) (= (ns_time_isolated riina_ns) true))) ; RIINA_003_complete_isolation

; RIINA_004_resource_controls (matches Coq: Theorem RIINA_004_resource_controls)
(assert (and (= (cg_cpu_limited riina_cgroup) true) (= (cg_memory_limited riina_cgroup) true) (= (cg_swap_disabled riina_cgroup) true) (= (cg_pids_limited riina_cgroup) true) (= (cg_io_limited riina_cgroup) true))) ; RIINA_004_resource_controls

; RIINA_005_seccomp_hardened (matches Coq: Theorem RIINA_005_seccomp_hardened)
(assert (and (= (sc_syscall_filter riina_seccomp) true) (= (sc_default_deny riina_seccomp) true) (= (sc_audit_logging riina_seccomp) true) (= (sc_block_privileged riina_seccomp) true) (= (sc_block_debug riina_seccomp) true) (= (sc_block_module riina_seccomp) true) (= (sc_block_namespace riina_seccomp) true))) ; RIINA_005_seccomp_hardened

; RIINA_006_caps_minimal (matches Coq: Theorem RIINA_006_caps_minimal)
(assert (and (= (cap_sys_admin riina_caps) false) (= (cap_sys_ptrace riina_caps) false) (= (cap_sys_module riina_caps) false) (= (cap_sys_rawio riina_caps) false) (= (cap_net_raw riina_caps) false) (= (cap_dac_override riina_caps) false) (= (cap_setuid riina_caps) false) (= (cap_setgid riina_caps) false) (= (cap_chown riina_caps) false))) ; RIINA_006_caps_minimal

; RIINA_007_image_verified (matches Coq: Theorem RIINA_007_image_verified)
(assert (and (= (img_signed riina_image) true) (= (img_signature_valid riina_image) true) (= (img_hash_verified riina_image) true) (= (img_trusted_registry riina_image) true) (= (img_sbom_present riina_image) true) (= (img_vuln_scanned riina_image) true) (= (img_no_critical_vulns riina_image) true) (= (img_base_verified riina_image) true))) ; RIINA_007_image_verified

; Verify all assertions are satisfiable
(check-sat)
(exit)
